292 307 297 298 309 307 336 320 321 322 323 324 323 314 311 304 293 296 261 297 315 314 321 321 314 313 304 295 283 279 271 264 277 290 319 
495 464 410 427 445 464 475 439 437 437 433 433 429 435 442 427 421 418 384 410 407 406 391 398 394 378 382 402 406 399 401 414 439 434 433 
35
[
	0,
	2 : {2, 3, 33, 32, 31, 30, 18, 29, 2, : 7700}, {2, 27, 28, 16, 17, 2, : 7450}, 
	0,
],
[
	0,
	1 : {1, 5, 4, 14, 13, 34, 9, 8, 7, 6, 1, : 6870}, 
	2 : {2, 19, 15, 10, 11, 12, 20, 21, 23, 22, 24, 25, 26, 2, : 7350}, 
	0,
],

